c array.sh: path:     /data/qbf/qbf20/PCNF/tlc05-uniform-depth-45.qdimacs
c array.sh: name:     tlc05-uniform-depth-45
c array.sh: task:     100
c array.sh: host:     c3n32
c array.sh: uname:    Linux c3n32 4.15.0-135-generic #139-Ubuntu SMP Mon Jan 18 17:38:24 UTC 2021 x86_64 x86_64 x86_64 GNU/Linux
c array.sh: start:    Tue Feb 16 22:54:34 CET 2021
c array.sh: noturbo:  1
c array.sh: governor: 32 performance
c array.sh: tmp:      1%
c array.sh: unzipped: /tmp/local-unzipped-18834727-100-tlc05-uniform-depth-45.cnf
using tmp directory:
  /tmp
running QBF solver...

/home/seidl/cert_tests/bin/ferp-models/ijtihad/ijtihad --dependencies=0 --wit_per_call=-1 --cex_per_call=-1 --log_phi=/tmp/ferpcert3016expanded.cnf /tmp/local-unzipped-18834727-100-tlc05-uniform-depth-45.cnf
c Options after parsing: 
c cex_per_call = 18446744073709551615
c wit_per_call = 18446744073709551615
c warmup = 1
c warmup_randoms = 0
c trimming_phi = 0
c trimming_ksi = 2
c trimming_interval = 200
c memory_limit = 3000000
c MySolverv970-glucose
-1 -2 -3 -4 -5 -6 -7 -8 -9 -10 -11 -12 -13 -14 -15 -16 -17 -18 -19 -20 -21 -22 -23 -24 -25 -26 -27 -28 -29 -30 -31 -32 -33 -34 -35 -36 -37 -38 -39 -40 -41 -42 -43 -44 -45 -46 -47 -48 -49 -50 -51 -52 -53 -54 -55 -56 -57 -58 -59 -60 -61 -62 -63 -64 -65 -66 -67 -68 -69 -70 -71 -72 -73 -74 -75 -76 -77 -78 -79 -80 -81 -82 -83 -84 -85 -86 -87 -88 -89 -90 -91 -92 
1 2 3 4 5 6 7 8 9 10 11 12 13 14 15 16 17 18 19 20 21 22 23 24 25 26 27 28 29 30 31 32 33 34 35 36 37 38 39 40 41 42 43 44 45 46 47 48 49 50 51 52 53 54 55 56 57 58 59 60 61 62 63 64 65 66 67 68 69 70 71 72 73 74 75 76 77 78 79 80 81 82 83 84 85 86 87 88 89 90 91 92 
c Number of calls is: 0
c Layers in PHI: 0
c Layers in KSI: 0
c Running Ijtihad loop
c sat_solver_phi calld 0 times, running for 0.16259 seconds.
c number of layers in PHI is 2
c sat_solver_ksi was running for 0 seconds.
c number of layers in KSI is 0
c mysolver was running for 0.275598 seconds.
s cnf 0
solving done with exit code 20

QBF solver OK

running SAT Solver...

/tmp/ferpcert3016expanded.cnf
s UNSATISFIABLE

PROOF GENERATION OK

checking unsat proof

resolved 1 root and 1 empty clause
trace-size2: 17277231

TRACE CHECK OK

running toferp...

ferp-size: 15331484
TOFERP OK

checking FERP PROOF...

c Warning: Variable count mismatch 16008 16009
FERP CHECK OK

extracting AIG ...

aig-size: 90640
aig-header: aag 16008 15781 0 92 92
FERP CERT OK

merging  AIG into QBF ...

CERTCHECK OK

merged-cnf-header: p cnf 128325 289199
merged-cnf-size: 5020677
running SAT solver...

c ---- [ banner ] ------------------------------------------------------------
c
c KISSAT SAT Solver
c Copyright (c) 2019-2020 Armin Biere JKU Linz
c 
c Version 1.0.3 59813addcacc4d6fb880ebdd63685600475aa940
c gcc (Ubuntu 7.5.0-3ubuntu1~18.04) 7.5.0 -W -Wall -O3 -DNEMBEDDED -DNDEBUG -DNMETRICS -DNSTATISTICS
c Sun Feb 14 23:58:54 CET 2021 Linux cluster3 4.15.0-135-generic x86_64
c
c ---- [ parsing ] -----------------------------------------------------------
c
c opened and reading DIMACS file:
c 
c   /tmp/ferpcert_merged_cnf3016.cnf
c 
c parsed 'p cnf 128325 289199' header
c closing input after reading 5020677 bytes (5 MB)
c finished parsing after 0.09 seconds
c
c ---- [ solving ] -----------------------------------------------------------
c
c  seconds reductions redundant irredundant
c         MB   restarts    trail       variables
c          level  conflicts   glue          remaining
c
c *  0.09 18 0  0  0   0   0 0% 0 289197 13808 11%
c {  0.09 18 0  0  0   0   0 0% 0 289197 13808 11%
c i  0.09 18 1  0  0   1   0 0% 0 289197 13807 11%
c i  0.12 19 60  0  1 194 191 57% 2 289197 13789 11%
c i  0.12 19 52  0 13 221 217 49% 2 289197 13736 11%
c i  0.12 19 51  0 15 224 219 48% 2 289197 13712 11%
c i  0.13 19 45  0 16 261 254 48% 2 289197 13710 11%
c -  0.15 11 41  1 41 300 287 43% 2 38005 13710 11%
c i  0.16  6 36  1 81 352 334 37% 2 38005 13708 11%
c i  0.16  6 31  1 102 398 370 32% 2 38005 13706 11%
c i  0.17  6 24  1 148 525 495 25% 3 38005 13704 11%
c i  0.17  6 21  1 163 718 674 26% 2 38005 13686 11%
c i  0.17  6 21  1 163 720 675 26% 2 38005 13633 11%
c i  0.18  6 25  1 163 810 762 31% 2 38005 13630 11%
c -  0.19  6 24  2 179 900 828 29% 3 37735 13630 11%
c i  0.19  6 24  2 182 957 884 30% 3 37735 13628 11%
c i  0.19  6 24  2 184 963 889 29% 3 37735 13627 11%
c }  0.19  6 23  2 184 1000 926 31% 3 37735 13627 11%
c [  0.19  6 0  2 184 1000 926 0% 0 37735 13627 11%
c O  0.20  6 17  2 184 1003 927 43% 4 37703 13627 11%
c
c  seconds  reductions   redundant irredundant
c         MB    restarts       trail      variables
c          level    conflicts     glue         remaining
c
c i  0.20  6 13  2 184 1005 928 30% 2 37703 13612 11%
c i  0.20  6 13  2 184 1006 928 27% 2 37703 13574 11%
c i  0.20  6 13  2 184 1007 928 25% 1 37703 13505 11%
c i  0.20  6 32  2 184 1135 1045 33% 4 37703 13503 11%
c i  0.21  6 27  2 184 1240 1142 36% 3 37703 13444 10%
c i  0.22  6 24  2 184 1473 1340 35% 4 37703 13442 10%
c i  0.24  6 35  2 184 1731 1576 40% 4 37703 13397 10%
c -  0.25  6 34  3 184 1802 1510 39% 5 37024 13397 10%
c i  0.26  6 32  3 184 1941 1626 37% 5 37024 13396 10%
c i  0.28  6 30  3 185 2112 1781 38% 5 37024 13381 10%
c i  0.28  6 30  3 185 2133 1785 37% 5 37024 13376 10%
c ]  0.29  6 29  3 185 2205 1856 36% 5 37024 13376 10%
c {  0.29  6 23  3 185 2205 1856 31% 3 37024 13376 10%
c i  0.31  6 21  3 263 2421 2049 28% 3 37024 13371 10%
c i  0.31  6 21  3 267 2430 2057 28% 3 37024 13356 10%
c i  0.31  6 21  3 281 2464 2087 28% 3 37024 13354 10%
c i  0.32  6 21  3 293 2499 2121 27% 3 37024 13349 10%
c i  0.32  6 21  3 293 2500 2121 27% 3 37024 13347 10%
c d  0.32  7 21  3 293 2500 1995 27% 3 30831 10266 8%
c d  0.32  7 21  3 293 2500 1989 27% 3 30357 10031 8%
c
c  seconds  reductions   redundant  irredundant
c         MB    restarts        trail      variables
c          level    conflicts      glue        remaining
c
c 3  0.32  7 21  3 293 2500 2241 27% 3 30357 10031 8%
c t  0.34  7 21  3 293 2500 2227 27% 3 25064 9864 8%
c }  0.50  8 21  3 293 2500 50911 27% 3 25020 1774 1%
c 0  0.50  8 21  3 293 2500 50911 27% 3 25020 1774 1%
c
c ---- [ result ] ------------------------------------------------------------
c
s UNSATISFIABLE
c
c ---- [ profiling ] ---------------------------------------------------------
c
c           0.22   44.52 %  search
c           0.19   37.25 %  simplify
c           0.18   36.59 %  probe
c           0.15   30.91 %  failed
c           0.13   26.46 %  focused
c           0.09   18.20 %  parse
c           0.09   18.04 %  stable
c           0.02    3.84 %  transitive
c           0.02    3.67 %  reduce
c           0.01    1.38 %  substitute
c           0.00    0.65 %  autarky
c           0.00    0.46 %  ternary
c =============================================
c           0.50  100.00 %  total
c
c ---- [ statistics ] --------------------------------------------------------
c
c conflicts:                             2500             5016.40 per second
c decisions:                             9641                3.86 per conflict
c propagations:                       3665675          7355402    per second
c reductions:                               3              833    interval
c rephased:                                 1             2500    interval
c restarts:                               293                8.53 interval
c
c ---- [ resources ] ---------------------------------------------------------
c
c maximum-resident-set-size:         19812352 bytes         19 MB
c process-time:                             0s               0.50 seconds
c
c ---- [ shutting down ] -----------------------------------------------------
c
c exit 20

SAT solver OK

VALID
c array.sh: end:      Tue Feb 16 22:56:32 CET 2021
